27	3

10	10	10	

0	0	0	0	3	2	3	4	
3	3	5	2	2	5	8	
2	5	4	3	2	5	8	
3	5	2	2	3	5	6	7	
8	4	1	4	3	9	10	12	
4	5	5	4	2	9	10	
4	3	5	2	2	9	11	
1	2	4	4	2	10	11	
5	3	2	2	2	14	15	
2	3	2	4	1	14	
5	3	3	2	1	13	
4	4	1	4	2	13	16	
1	1	4	4	1	17	
1	2	2	2	1	17	
1	5	5	4	2	17	19	
3	1	5	4	2	18	20	
7	4	5	4	1	21	
5	3	2	3	2	23	24	
3	5	3	3	2	21	22	
4	2	4	6	1	21	
4	1	6	2	1	26	
4	3	2	1	1	25	
3	1	0	4	1	26	
2	2	2	1	1	25	
1	0	1	3	1	27	
2	2	2	2	1	27	
0	0	0	0	0	
